500
    1    37    37
    2    21    21
    3     3     3
    4    26    26
    5    25    25
    6    27    27
    7    22    22
    8     5     5
    9    15    15
   10    41    41
   11    19    19
   12    32    32
   13     4     4
   14    21    21
   15     7     7
   16    33    33
   17    26    26
   18    10    10
   19    17    17
   20    32    32
   21     7     7
   22    48    48
   23    18    18
   24    36    36
   25     3     3
   26    30    30
   27    17    17
   28     9     9
   29    44    44
   30    18    18
   31    14    14
   32    49    49
   33     8     8
   34    29    29
   35    43    43
   36    47    47
   37    38    38
   38    46    46
   39    15    15
   40     1     1
   41    20    20
   42    43    43
   43    45    45
   44    32    32
   45     5     5
   46    39    39
   47    32    32
   48    23    23
   49    38    38
   50    40    40
   51    21    21
   52    30    30
   53    35    35
   54    11    11
   55    15    15
   56    37    37
   57    33    33
   58    23    23
   59    16    16
   60    12    12
   61     3     3
   62    20    20
   63    29    29
   64    45    45
   65    27    27
   66    17    17
   67    48    48
   68    50    50
   69     1     1
   70     1     1
   71    10    10
   72    42    42
   73    29    29
   74    36    36
   75    14    14
   76    48    48
   77    21    21
   78     8     8
   79     6     6
   80    41    41
   81    26    26
   82    23    23
   83    45    45
   84    15    15
   85    31    31
   86    43    43
   87    43    43
   88    44    44
   89    10    10
   90     4     4
   91     6     6
   92    48    48
   93    29    29
   94    36    36
   95     5     5
   96    30    30
   97    38    38
   98    16    16
   99    33    33
  100    17    17
  101    22    22
  102    14    14
  103    13    13
  104    42    42
  105    50    50
  106    28    28
  107    11    11
  108    16    16
  109     4     4
  110    37    37
  111    37    37
  112    23    23
  113    34    34
  114    48    48
  115     4     4
  116    11    11
  117     3     3
  118     9     9
  119    31    31
  120    44    44
  121    24    24
  122    45    45
  123    30    30
  124    21    21
  125    13    13
  126     3     3
  127    48    48
  128    27    27
  129     1     1
  130     4     4
  131    33    33
  132    48    48
  133    42    42
  134    10    10
  135    36    36
  136    13    13
  137    19    19
  138    44    44
  139    37    37
  140     9     9
  141     3     3
  142     8     8
  143    25    25
  144    28    28
  145     1     1
  146    42    42
  147     8     8
  148    21    21
  149    31    31
  150    46    46
  151    20    20
  152    47    47
  153    30    30
  154    47    47
  155     4     4
  156    36    36
  157     4     4
  158    15    15
  159    12    12
  160    35    35
  161    27    27
  162    50    50
  163    35    35
  164    13    13
  165    28    28
  166    19    19
  167    27    27
  168    25    25
  169    49    49
  170     2     2
  171    37    37
  172     6     6
  173    39    39
  174    11    11
  175    19    19
  176    20    20
  177    23    23
  178    25    25
  179    24    24
  180    20    20
  181    48    48
  182    27    27
  183    32    32
  184    45    45
  185    24    24
  186    13    13
  187    47    47
  188    18    18
  189    37    37
  190    31    31
  191    44    44
  192     8     8
  193    16    16
  194    40    40
  195    30    30
  196    15    15
  197    43    43
  198    36    36
  199     9     9
  200    24    24
  201    36    36
  202     4     4
  203    41    41
  204    11    11
  205    23    23
  206    24    24
  207     9     9
  208    33    33
  209     2     2
  210    26    26
  211    33    33
  212     2     2
  213    12    12
  214    39    39
  215    38    38
  216    26    26
  217    20    20
  218    39    39
  219    32    32
  220    22    22
  221    14    14
  222    41    41
  223    42    42
  224    21    21
  225    18    18
  226    29    29
  227    32    32
  228     5     5
  229    44    44
  230    29    29
  231     2     2
  232    42    42
  233    16    16
  234    40    40
  235    34    34
  236    10    10
  237    22    22
  238    33    33
  239    20    20
  240     8     8
  241     7     7
  242    39    39
  243    26    26
  244    26    26
  245    11    11
  246    27    27
  247     4     4
  248    24    24
  249     2     2
  250     9     9
  251     4     4
  252    42    42
  253    47    47
  254    40    40
  255    37    37
  256    27    27
  257     8     8
  258    29    29
  259    28    28
  260    42    42
  261    25    25
  262    42    42
  263    48    48
  264    44    44
  265    12    12
  266     1     1
  267    47    47
  268    48    48
  269    46    46
  270    27    27
  271     1     1
  272     5     5
  273    34    34
  274     4     4
  275    12    12
  276     7     7
  277     9     9
  278    36    36
  279    37    37
  280    31    31
  281    24    24
  282     7     7
  283    46    46
  284    22    22
  285     2     2
  286    15    15
  287    14    14
  288    21    21
  289    12    12
  290    21    21
  291    27    27
  292    20    20
  293     1     1
  294     2     2
  295    28    28
  296    38    38
  297    46    46
  298    18    18
  299    25    25
  300    26    26
  301     8     8
  302    24    24
  303    12    12
  304     8     8
  305    47    47
  306    37    37
  307    35    35
  308    29    29
  309    39    39
  310    42    42
  311    13    13
  312    25    25
  313     5     5
  314    13    13
  315    32    32
  316    26    26
  317    49    49
  318    15    15
  319     4     4
  320    28    28
  321    26    26
  322    18    18
  323     8     8
  324     7     7
  325    19    19
  326    17    17
  327    25    25
  328    32    32
  329    14    14
  330    18    18
  331    33    33
  332    30    30
  333    20    20
  334    16    16
  335    39    39
  336     3     3
  337     1     1
  338    49    49
  339    38    38
  340    50    50
  341    32    32
  342    36    36
  343    13    13
  344    25    25
  345     8     8
  346    33    33
  347    31    31
  348     7     7
  349    38    38
  350    12    12
  351    26    26
  352    13    13
  353     9     9
  354    26    26
  355    48    48
  356    21    21
  357    17    17
  358    31    31
  359     5     5
  360    16    16
  361    24    24
  362    38    38
  363    38    38
  364    23    23
  365     1     1
  366    10    10
  367    11    11
  368    28    28
  369    12    12
  370    50    50
  371    22    22
  372    43    43
  373     5     5
  374    38    38
  375    36    36
  376    33    33
  377    27    27
  378    41    41
  379    22    22
  380    24    24
  381    47    47
  382    18    18
  383     6     6
  384    11    11
  385    23    23
  386    43    43
  387    29    29
  388    39    39
  389    48    48
  390    49    49
  391    15    15
  392    11    11
  393    23    23
  394    46    46
  395    31    31
  396    29    29
  397     6     6
  398    34    34
  399    50    50
  400     7     7
  401    38    38
  402    33    33
  403    40    40
  404     3     3
  405    20    20
  406    43    43
  407     4     4
  408    45    45
  409     4     4
  410    37    37
  411    10    10
  412    10    10
  413    39    39
  414    36    36
  415    43    43
  416    31    31
  417    40    40
  418    43    43
  419    14    14
  420    20    20
  421    47    47
  422    46    46
  423     1     1
  424    38    38
  425    28    28
  426    22    22
  427    38    38
  428    24    24
  429    33    33
  430    31    31
  431    38    38
  432    18    18
  433    21    21
  434    30    30
  435     3     3
  436    48    48
  437     2     2
  438    31    31
  439    43    43
  440    22    22
  441    25    25
  442    37    37
  443     8     8
  444     2     2
  445    20    20
  446    23    23
  447    39    39
  448    20    20
  449    29    29
  450    20    20
  451    33    33
  452    33    33
  453    44    44
  454    11    11
  455    26    26
  456     9     9
  457    28    28
  458    32    32
  459    50    50
  460    26    26
  461    32    32
  462     3     3
  463     3     3
  464     6     6
  465    28    28
  466    45    45
  467     1     1
  468    27    27
  469    48    48
  470    13    13
  471    11    11
  472    10    10
  473    10    10
  474    26    26
  475    10    10
  476     4     4
  477    28    28
  478    39    39
  479     8     8
  480    10    10
  481    46    46
  482    34    34
  483    18    18
  484    26    26
  485    10    10
  486    45    45
  487     4     4
  488    23    23
  489    15    15
  490    21    21
  491    28    28
  492    17    17
  493    39    39
  494    23    23
  495    21    21
  496    32    32
  497    43    43
  498     2     2
  499    29    29
  500    49    49
8308
